0000000000000000
0000000000000000
0011111111110000
0011111111110000
0011111111110000
0000000001110000
0000000001110000
0000000001110000
0000000001110000
0000000001110000
0011100001110000
0011100001110000
0011100001110000
0011100001110000
0000000000000000
0000000000000000